p cnf 965 2478
51 -698 -699 0
-51 698 0
-51 699 0
52 -51 -3 0
-52 51 0
-52 3 0
53 -5 -4 0
-53 5 0
-53 4 0
54 -53 -700 0
-54 53 0
-54 700 0
55 -701 -702 0
-55 701 0
-55 702 0
56 -8 -703 0
-56 8 0
-56 703 0
57 -56 -9 0
-57 56 0
-57 9 0
58 -704 -55 0
-58 704 0
-58 55 0
59 -705 -706 0
-59 705 0
-59 706 0
60 -59 -707 0
-60 59 0
-60 707 0
61 -708 -58 0
-61 708 0
-61 58 0
62 -13 -6 0
-62 13 0
-62 6 0
63 -62 -709 0
-63 62 0
-63 709 0
64 -710 -61 0
-64 710 0
-64 61 0
65 -15 -711 0
-65 15 0
-65 711 0
66 -65 -6 0
-66 65 0
-66 6 0
67 -712 -64 0
-67 712 0
-67 64 0
68 -16 -12 0
-68 16 0
-68 12 0
69 -68 -17 0
-69 68 0
-69 17 0
70 -713 -67 0
-70 713 0
-70 67 0
71 -714 -5 0
-71 714 0
-71 5 0
72 -71 -9 0
-72 71 0
-72 9 0
73 -715 -70 0
-73 715 0
-73 70 0
74 -19 -700 0
-74 19 0
-74 700 0
75 -74 -716 0
-75 74 0
-75 716 0
76 -717 -73 0
-76 717 0
-76 73 0
77 -6 -1 0
-77 6 0
-77 1 0
78 -77 -17 0
-78 77 0
-78 17 0
79 -718 -76 0
-79 718 0
-79 76 0
80 -719 -10 0
-80 719 0
-80 10 0
81 -80 -22 0
-81 80 0
-81 22 0
82 -720 -79 0
-82 720 0
-82 79 0
83 -721 -722 0
-83 721 0
-83 722 0
84 -83 -723 0
-84 83 0
-84 723 0
85 -724 -82 0
-85 724 0
-85 82 0
86 -27 -725 0
-86 27 0
-86 725 0
87 -86 -700 0
-87 86 0
-87 700 0
88 -726 -85 0
-88 726 0
-88 85 0
89 -29 -727 0
-89 29 0
-89 727 0
90 -89 -728 0
-90 89 0
-90 728 0
91 -729 -88 0
-91 729 0
-91 88 0
92 -730 -719 0
-92 730 0
-92 719 0
93 -92 -731 0
-93 92 0
-93 731 0
94 -732 -91 0
-94 732 0
-94 91 0
95 -32 -14 0
-95 32 0
-95 14 0
96 -95 -20 0
-96 95 0
-96 20 0
97 -733 -94 0
-97 733 0
-97 94 0
98 -734 -11 0
-98 734 0
-98 11 0
99 -98 -14 0
-99 98 0
-99 14 0
100 -735 -97 0
-100 735 0
-100 97 0
101 -32 -7 0
-101 32 0
-101 7 0
102 -101 -721 0
-102 101 0
-102 721 0
103 -736 -100 0
-103 736 0
-103 100 0
104 -34 -737 0
-104 34 0
-104 737 0
105 -104 -707 0
-105 104 0
-105 707 0
106 -738 -103 0
-106 738 0
-106 103 0
107 -722 -698 0
-107 722 0
-107 698 0
108 -107 -35 0
-108 107 0
-108 35 0
109 -739 -106 0
-109 739 0
-109 106 0
110 -36 -740 0
-110 36 0
-110 740 0
111 -110 -13 0
-111 110 0
-111 13 0
112 -741 -109 0
-112 741 0
-112 109 0
113 -742 -37 0
-113 742 0
-113 37 0
114 -113 -6 0
-114 113 0
-114 6 0
115 -743 -112 0
-115 743 0
-115 112 0
116 -5 -699 0
-116 5 0
-116 699 0
117 -116 -744 0
-117 116 0
-117 744 0
118 -745 -115 0
-118 745 0
-118 115 0
119 -40 -39 0
-119 40 0
-119 39 0
120 -119 -16 0
-120 119 0
-120 16 0
121 -746 -118 0
-121 746 0
-121 118 0
122 -11 -4 0
-122 11 0
-122 4 0
123 -122 -728 0
-123 122 0
-123 728 0
124 -747 -121 0
-124 747 0
-124 121 0
125 -725 -1 0
-125 725 0
-125 1 0
126 -125 -35 0
-126 125 0
-126 35 0
127 -748 -124 0
-127 748 0
-127 124 0
128 -722 -19 0
-128 722 0
-128 19 0
129 -128 -41 0
-129 128 0
-129 41 0
130 -749 -127 0
-130 749 0
-130 127 0
131 -705 -703 0
-131 705 0
-131 703 0
132 -131 -740 0
-132 131 0
-132 740 0
133 -750 -130 0
-133 750 0
-133 130 0
134 -742 -751 0
-134 742 0
-134 751 0
135 -134 -42 0
-135 134 0
-135 42 0
136 -752 -133 0
-136 752 0
-136 133 0
137 -43 -1 0
-137 43 0
-137 1 0
138 -137 -20 0
-138 137 0
-138 20 0
139 -753 -136 0
-139 753 0
-139 136 0
140 -30 -698 0
-140 30 0
-140 698 0
141 -140 -42 0
-141 140 0
-141 42 0
142 -754 -139 0
-142 754 0
-142 139 0
143 -755 -28 0
-143 755 0
-143 28 0
144 -143 -709 0
-144 143 0
-144 709 0
145 -756 -142 0
-145 756 0
-145 142 0
146 -44 -757 0
-146 44 0
-146 757 0
147 -146 -700 0
-147 146 0
-147 700 0
148 -758 -145 0
-148 758 0
-148 145 0
149 -757 -759 0
-149 757 0
-149 759 0
150 -149 -760 0
-150 149 0
-150 760 0
151 -761 -148 0
-151 761 0
-151 148 0
152 -762 -725 0
-152 762 0
-152 725 0
153 -152 -721 0
-153 152 0
-153 721 0
154 -763 -151 0
-154 763 0
-154 151 0
155 -764 -31 0
-155 764 0
-155 31 0
156 -155 -765 0
-156 155 0
-156 765 0
157 -766 -154 0
-157 766 0
-157 154 0
158 -767 -45 0
-158 767 0
-158 45 0
159 -158 -35 0
-159 158 0
-159 35 0
160 -768 -157 0
-160 768 0
-160 157 0
161 -767 -706 0
-161 767 0
-161 706 0
162 -161 -39 0
-162 161 0
-162 39 0
163 -769 -160 0
-163 769 0
-163 160 0
164 -770 -14 0
-164 770 0
-164 14 0
165 -164 -26 0
-165 164 0
-165 26 0
166 -771 -163 0
-166 771 0
-166 163 0
167 -43 -27 0
-167 43 0
-167 27 0
168 -167 -40 0
-168 167 0
-168 40 0
169 -772 -166 0
-169 772 0
-169 166 0
170 -773 -2 0
-170 773 0
-170 2 0
171 -170 -9 0
-171 170 0
-171 9 0
172 -774 -169 0
-172 774 0
-172 169 0
173 -770 -719 0
-173 770 0
-173 719 0
174 -173 -759 0
-174 173 0
-174 759 0
175 -775 -172 0
-175 775 0
-175 172 0
176 -44 -705 0
-176 44 0
-176 705 0
177 -176 -22 0
-177 176 0
-177 22 0
178 -776 -175 0
-178 776 0
-178 175 0
179 -714 -4 0
-179 714 0
-179 4 0
180 -179 -777 0
-180 179 0
-180 777 0
181 -778 -178 0
-181 778 0
-181 178 0
182 -48 -759 0
-182 48 0
-182 759 0
183 -182 -22 0
-183 182 0
-183 22 0
184 -779 -181 0
-184 779 0
-184 181 0
185 -777 -725 0
-185 777 0
-185 725 0
186 -185 -716 0
-186 185 0
-186 716 0
187 -780 -184 0
-187 780 0
-187 184 0
188 -34 -698 0
-188 34 0
-188 698 0
189 -188 -48 0
-189 188 0
-189 48 0
190 -781 -187 0
-190 781 0
-190 187 0
191 -44 -7 0
-191 44 0
-191 7 0
192 -191 -782 0
-192 191 0
-192 782 0
193 -783 -190 0
-193 783 0
-193 190 0
194 -767 -722 0
-194 767 0
-194 722 0
195 -194 -37 0
-195 194 0
-195 37 0
196 -784 -193 0
-196 784 0
-196 193 0
197 -21 -698 0
-197 21 0
-197 698 0
198 -197 -777 0
-198 197 0
-198 777 0
199 -785 -196 0
-199 785 0
-199 196 0
200 -711 -7 0
-200 711 0
-200 7 0
201 -200 -39 0
-201 200 0
-201 39 0
202 -786 -199 0
-202 786 0
-202 199 0
203 -757 -705 0
-203 757 0
-203 705 0
204 -203 -31 0
-204 203 0
-204 31 0
205 -787 -202 0
-205 787 0
-205 202 0
206 -725 -740 0
-206 725 0
-206 740 0
207 -206 -16 0
-207 206 0
-207 16 0
208 -788 -205 0
-208 788 0
-208 205 0
209 -41 -36 0
-209 41 0
-209 36 0
210 -209 -20 0
-210 209 0
-210 20 0
211 -789 -208 0
-211 789 0
-211 208 0
212 -30 -790 0
-212 30 0
-212 790 0
213 -212 -6 0
-213 212 0
-213 6 0
214 -791 -211 0
-214 791 0
-214 211 0
215 -767 -703 0
-215 767 0
-215 703 0
216 -215 -759 0
-216 215 0
-216 759 0
217 -792 -214 0
-217 792 0
-217 214 0
218 -777 -714 0
-218 777 0
-218 714 0
219 -218 -709 0
-219 218 0
-219 709 0
220 -793 -217 0
-220 793 0
-220 217 0
221 -43 -28 0
-221 43 0
-221 28 0
222 -221 -37 0
-222 221 0
-222 37 0
223 -794 -220 0
-223 794 0
-223 220 0
224 -721 -765 0
-224 721 0
-224 765 0
225 -224 -20 0
-225 224 0
-225 20 0
226 -795 -223 0
-226 795 0
-226 223 0
227 -731 -722 0
-227 731 0
-227 722 0
228 -227 -9 0
-228 227 0
-228 9 0
229 -796 -226 0
-229 796 0
-229 226 0
230 -30 -2 0
-230 30 0
-230 2 0
231 -230 -23 0
-231 230 0
-231 23 0
232 -797 -229 0
-232 797 0
-232 229 0
233 -44 -10 0
-233 44 0
-233 10 0
234 -233 -22 0
-234 233 0
-234 22 0
235 -798 -232 0
-235 798 0
-235 232 0
236 -799 -10 0
-236 799 0
-236 10 0
237 -236 -709 0
-237 236 0
-237 709 0
238 -800 -235 0
-238 800 0
-238 235 0
239 -24 -15 0
-239 24 0
-239 15 0
240 -239 -801 0
-240 239 0
-240 801 0
241 -802 -238 0
-241 802 0
-241 238 0
242 -39 -722 0
-242 39 0
-242 722 0
243 -242 -27 0
-243 242 0
-243 27 0
244 -803 -241 0
-244 803 0
-244 241 0
245 -45 -773 0
-245 45 0
-245 773 0
246 -245 -723 0
-246 245 0
-246 723 0
247 -804 -244 0
-247 804 0
-247 244 0
248 -721 -705 0
-248 721 0
-248 705 0
249 -248 -742 0
-249 248 0
-249 742 0
250 -805 -247 0
-250 805 0
-250 247 0
251 -773 -10 0
-251 773 0
-251 10 0
252 -251 -799 0
-252 251 0
-252 799 0
253 -806 -250 0
-253 806 0
-253 250 0
254 -728 -1 0
-254 728 0
-254 1 0
255 -254 -707 0
-255 254 0
-255 707 0
256 -807 -253 0
-256 807 0
-256 253 0
257 -30 -808 0
-257 30 0
-257 808 0
258 -257 -27 0
-258 257 0
-258 27 0
259 -809 -256 0
-259 809 0
-259 256 0
260 -770 -727 0
-260 770 0
-260 727 0
261 -260 -764 0
-261 260 0
-261 764 0
262 -810 -259 0
-262 810 0
-262 259 0
263 -35 -32 0
-263 35 0
-263 32 0
264 -263 -765 0
-264 263 0
-264 765 0
265 -811 -262 0
-265 811 0
-265 262 0
266 -799 -714 0
-266 799 0
-266 714 0
267 -266 -744 0
-267 266 0
-267 744 0
268 -812 -265 0
-268 812 0
-268 265 0
269 -759 -725 0
-269 759 0
-269 725 0
270 -269 -813 0
-270 269 0
-270 813 0
271 -814 -268 0
-271 814 0
-271 268 0
272 -34 -21 0
-272 34 0
-272 21 0
273 -272 -18 0
-273 272 0
-273 18 0
274 -815 -271 0
-274 815 0
-274 271 0
275 -767 -730 0
-275 767 0
-275 730 0
276 -275 -699 0
-276 275 0
-276 699 0
277 -816 -274 0
-277 816 0
-277 274 0
278 -731 -4 0
-278 731 0
-278 4 0
279 -278 -722 0
-279 278 0
-279 722 0
280 -817 -277 0
-280 817 0
-280 277 0
281 -28 -723 0
-281 28 0
-281 723 0
282 -281 -737 0
-282 281 0
-282 737 0
283 -818 -280 0
-283 818 0
-283 280 0
284 -45 -35 0
-284 45 0
-284 35 0
285 -284 -18 0
-285 284 0
-285 18 0
286 -819 -283 0
-286 819 0
-286 283 0
287 -734 -21 0
-287 734 0
-287 21 0
288 -287 -723 0
-288 287 0
-288 723 0
289 -820 -286 0
-289 820 0
-289 286 0
290 -762 -34 0
-290 762 0
-290 34 0
291 -290 -29 0
-291 290 0
-291 29 0
292 -821 -289 0
-292 821 0
-292 289 0
293 -5 -698 0
-293 5 0
-293 698 0
294 -293 -12 0
-294 293 0
-294 12 0
295 -822 -292 0
-295 822 0
-295 292 0
296 -29 -4 0
-296 29 0
-296 4 0
297 -296 -8 0
-297 296 0
-297 8 0
298 -823 -295 0
-298 823 0
-298 295 0
299 -764 -30 0
-299 764 0
-299 30 0
300 -299 -714 0
-300 299 0
-300 714 0
301 -824 -298 0
-301 824 0
-301 298 0
302 -722 -705 0
-302 722 0
-302 705 0
303 -302 -24 0
-303 302 0
-303 24 0
304 -825 -301 0
-304 825 0
-304 301 0
305 -27 -14 0
-305 27 0
-305 14 0
306 -305 -826 0
-306 305 0
-306 826 0
307 -827 -304 0
-307 827 0
-307 304 0
308 -46 -7 0
-308 46 0
-308 7 0
309 -308 -759 0
-309 308 0
-309 759 0
310 -828 -307 0
-310 828 0
-310 307 0
311 -751 -826 0
-311 751 0
-311 826 0
312 -311 -799 0
-312 311 0
-312 799 0
313 -829 -310 0
-313 829 0
-313 310 0
314 -764 -790 0
-314 764 0
-314 790 0
315 -314 -744 0
-315 314 0
-315 744 0
316 -830 -313 0
-316 830 0
-316 313 0
317 -49 -723 0
-317 49 0
-317 723 0
318 -317 -12 0
-318 317 0
-318 12 0
319 -831 -316 0
-319 831 0
-319 316 0
320 -23 -7 0
-320 23 0
-320 7 0
321 -320 -5 0
-321 320 0
-321 5 0
322 -832 -319 0
-322 832 0
-322 319 0
323 -770 -33 0
-323 770 0
-323 33 0
324 -323 -722 0
-324 323 0
-324 722 0
325 -833 -322 0
-325 833 0
-325 322 0
326 -777 -7 0
-326 777 0
-326 7 0
327 -326 -709 0
-327 326 0
-327 709 0
328 -834 -325 0
-328 834 0
-328 325 0
329 -46 -722 0
-329 46 0
-329 722 0
330 -329 -714 0
-330 329 0
-330 714 0
331 -835 -328 0
-331 835 0
-331 328 0
332 -764 -836 0
-332 764 0
-332 836 0
333 -332 -13 0
-333 332 0
-333 13 0
334 -837 -331 0
-334 837 0
-334 331 0
335 -838 -28 0
-335 838 0
-335 28 0
336 -335 -16 0
-336 335 0
-336 16 0
337 -839 -334 0
-337 839 0
-337 334 0
338 -762 -27 0
-338 762 0
-338 27 0
339 -338 -840 0
-339 338 0
-339 840 0
340 -841 -337 0
-340 841 0
-340 337 0
341 -44 -4 0
-341 44 0
-341 4 0
342 -341 -709 0
-342 341 0
-342 709 0
343 -842 -340 0
-343 842 0
-343 340 0
344 -44 -1 0
-344 44 0
-344 1 0
345 -344 -711 0
-345 344 0
-345 711 0
346 -843 -343 0
-346 843 0
-346 343 0
347 -762 -11 0
-347 762 0
-347 11 0
348 -347 -844 0
-348 347 0
-348 844 0
349 -845 -346 0
-349 845 0
-349 346 0
350 -714 -711 0
-350 714 0
-350 711 0
351 -350 -707 0
-351 350 0
-351 707 0
352 -846 -349 0
-352 846 0
-352 349 0
353 -25 -3 0
-353 25 0
-353 3 0
354 -353 -12 0
-354 353 0
-354 12 0
355 -847 -352 0
-355 847 0
-355 352 0
356 -28 -27 0
-356 28 0
-356 27 0
357 -356 -25 0
-357 356 0
-357 25 0
358 -848 -355 0
-358 848 0
-358 355 0
359 -33 -826 0
-359 33 0
-359 826 0
360 -359 -777 0
-360 359 0
-360 777 0
361 -849 -358 0
-361 849 0
-361 358 0
362 -23 -719 0
-362 23 0
-362 719 0
363 -362 -9 0
-363 362 0
-363 9 0
364 -850 -361 0
-364 850 0
-364 361 0
365 -39 -35 0
-365 39 0
-365 35 0
366 -365 -765 0
-366 365 0
-366 765 0
367 -851 -364 0
-367 851 0
-367 364 0
368 -751 -737 0
-368 751 0
-368 737 0
369 -368 -16 0
-369 368 0
-369 16 0
370 -852 -367 0
-370 852 0
-370 367 0
371 -45 -15 0
-371 45 0
-371 15 0
372 -371 -773 0
-372 371 0
-372 773 0
373 -853 -370 0
-373 853 0
-373 370 0
374 -38 -23 0
-374 38 0
-374 23 0
375 -374 -728 0
-375 374 0
-375 728 0
376 -854 -373 0
-376 854 0
-376 373 0
377 -790 -836 0
-377 790 0
-377 836 0
378 -377 -838 0
-378 377 0
-378 838 0
379 -855 -376 0
-379 855 0
-379 376 0
380 -33 -706 0
-380 33 0
-380 706 0
381 -380 -13 0
-381 380 0
-381 13 0
382 -856 -379 0
-382 856 0
-382 379 0
383 -723 -24 0
-383 723 0
-383 24 0
384 -383 -20 0
-384 383 0
-384 20 0
385 -857 -382 0
-385 857 0
-385 382 0
386 -30 -4 0
-386 30 0
-386 4 0
387 -386 -813 0
-387 386 0
-387 813 0
388 -858 -385 0
-388 858 0
-388 385 0
389 -722 -22 0
-389 722 0
-389 22 0
390 -389 -6 0
-390 389 0
-390 6 0
391 -859 -388 0
-391 859 0
-391 388 0
392 -113 -765 0
-392 113 0
-392 765 0
393 -860 -391 0
-393 860 0
-393 391 0
394 -762 -7 0
-394 762 0
-394 7 0
395 -394 -721 0
-395 394 0
-395 721 0
396 -861 -393 0
-396 861 0
-396 393 0
397 -43 -790 0
-397 43 0
-397 790 0
398 -397 -35 0
-398 397 0
-398 35 0
399 -862 -396 0
-399 862 0
-399 396 0
400 -723 -711 0
-400 723 0
-400 711 0
401 -400 -826 0
-401 400 0
-401 826 0
402 -863 -399 0
-402 863 0
-402 399 0
403 -53 -41 0
-403 53 0
-403 41 0
404 -864 -402 0
-404 864 0
-404 402 0
405 -21 -10 0
-405 21 0
-405 10 0
406 -405 -27 0
-406 405 0
-406 27 0
407 -865 -404 0
-407 865 0
-407 404 0
408 -40 -38 0
-408 40 0
-408 38 0
409 -408 -716 0
-409 408 0
-409 716 0
410 -866 -407 0
-410 866 0
-410 407 0
411 -21 -14 0
-411 21 0
-411 14 0
412 -411 -40 0
-412 411 0
-412 40 0
413 -867 -410 0
-413 867 0
-413 410 0
414 -35 -706 0
-414 35 0
-414 706 0
415 -414 -782 0
-415 414 0
-415 782 0
416 -868 -413 0
-416 868 0
-416 413 0
417 -46 -5 0
-417 46 0
-417 5 0
418 -417 -707 0
-418 417 0
-418 707 0
419 -869 -416 0
-419 869 0
-419 416 0
420 -737 -836 0
-420 737 0
-420 836 0
421 -420 -840 0
-421 420 0
-421 840 0
422 -870 -419 0
-422 870 0
-422 419 0
423 -45 -11 0
-423 45 0
-423 11 0
424 -423 -742 0
-424 423 0
-424 742 0
425 -871 -422 0
-425 871 0
-425 422 0
426 -757 -808 0
-426 757 0
-426 808 0
427 -426 -16 0
-427 426 0
-427 16 0
428 -872 -425 0
-428 872 0
-428 425 0
429 -36 -706 0
-429 36 0
-429 706 0
430 -429 -840 0
-430 429 0
-430 840 0
431 -873 -428 0
-431 873 0
-431 428 0
432 -33 -10 0
-432 33 0
-432 10 0
433 -432 -6 0
-433 432 0
-433 6 0
434 -874 -431 0
-434 874 0
-434 431 0
435 -767 -33 0
-435 767 0
-435 33 0
436 -435 -759 0
-436 435 0
-436 759 0
437 -875 -434 0
-437 875 0
-437 434 0
438 -45 -44 0
-438 45 0
-438 44 0
439 -438 -799 0
-439 438 0
-439 799 0
440 -876 -437 0
-440 876 0
-440 437 0
441 -770 -32 0
-441 770 0
-441 32 0
442 -441 -11 0
-442 441 0
-442 11 0
443 -877 -440 0
-443 877 0
-443 440 0
444 -799 -706 0
-444 799 0
-444 706 0
445 -444 -744 0
-445 444 0
-445 744 0
446 -878 -443 0
-446 878 0
-446 443 0
447 -35 -34 0
-447 35 0
-447 34 0
448 -447 -17 0
-448 447 0
-448 17 0
449 -879 -446 0
-449 879 0
-449 446 0
450 -782 -767 0
-450 782 0
-450 767 0
451 -450 -16 0
-451 450 0
-451 16 0
452 -880 -449 0
-452 880 0
-452 449 0
453 -881 -10 0
-453 881 0
-453 10 0
454 -453 -13 0
-454 453 0
-454 13 0
455 -882 -452 0
-455 882 0
-455 452 0
456 -730 -2 0
-456 730 0
-456 2 0
457 -456 -40 0
-457 456 0
-457 40 0
458 -883 -455 0
-458 883 0
-458 455 0
459 -46 -39 0
-459 46 0
-459 39 0
460 -459 -844 0
-460 459 0
-460 844 0
461 -884 -458 0
-461 884 0
-461 458 0
462 -45 -32 0
-462 45 0
-462 32 0
463 -462 -759 0
-463 462 0
-463 759 0
464 -885 -461 0
-464 885 0
-464 461 0
465 -742 -790 0
-465 742 0
-465 790 0
466 -465 -48 0
-466 465 0
-466 48 0
467 -886 -464 0
-467 886 0
-467 464 0
468 -773 -3 0
-468 773 0
-468 3 0
469 -468 -13 0
-469 468 0
-469 13 0
470 -887 -467 0
-470 887 0
-470 467 0
471 -284 -737 0
-471 284 0
-471 737 0
472 -888 -470 0
-472 888 0
-472 470 0
473 -757 -751 0
-473 757 0
-473 751 0
474 -473 -48 0
-474 473 0
-474 48 0
475 -889 -472 0
-475 889 0
-475 472 0
476 -49 -14 0
-476 49 0
-476 14 0
477 -476 -844 0
-477 476 0
-477 844 0
478 -890 -475 0
-478 890 0
-478 475 0
479 -31 -740 0
-479 31 0
-479 740 0
480 -479 -759 0
-480 479 0
-480 759 0
481 -891 -478 0
-481 891 0
-481 478 0
482 -30 -1 0
-482 30 0
-482 1 0
483 -482 -773 0
-483 482 0
-483 773 0
484 -892 -481 0
-484 892 0
-484 481 0
485 -751 -722 0
-485 751 0
-485 722 0
486 -485 -39 0
-486 485 0
-486 39 0
487 -893 -484 0
-487 893 0
-487 484 0
488 -21 -5 0
-488 21 0
-488 5 0
489 -488 -737 0
-489 488 0
-489 737 0
490 -894 -487 0
-490 894 0
-490 487 0
491 -46 -699 0
-491 46 0
-491 699 0
492 -491 -770 0
-492 491 0
-492 770 0
493 -895 -490 0
-493 895 0
-493 490 0
494 -36 -705 0
-494 36 0
-494 705 0
495 -494 -29 0
-495 494 0
-495 29 0
496 -896 -493 0
-496 896 0
-496 493 0
497 -45 -711 0
-497 45 0
-497 711 0
498 -497 -844 0
-498 497 0
-498 844 0
499 -897 -496 0
-499 897 0
-499 496 0
500 -10 -698 0
-500 10 0
-500 698 0
501 -500 -15 0
-501 500 0
-501 15 0
502 -898 -499 0
-502 898 0
-502 499 0
503 -762 -33 0
-503 762 0
-503 33 0
504 -503 -28 0
-504 503 0
-504 28 0
505 -899 -502 0
-505 899 0
-505 502 0
506 -767 -721 0
-506 767 0
-506 721 0
507 -506 -49 0
-507 506 0
-507 49 0
508 -900 -505 0
-508 900 0
-508 505 0
509 -755 -27 0
-509 755 0
-509 27 0
510 -509 -8 0
-510 509 0
-510 8 0
511 -901 -508 0
-511 901 0
-511 508 0
512 -48 -37 0
-512 48 0
-512 37 0
513 -512 -760 0
-513 512 0
-513 760 0
514 -902 -511 0
-514 902 0
-514 511 0
515 -34 -10 0
-515 34 0
-515 10 0
516 -515 -755 0
-516 515 0
-516 755 0
517 -903 -514 0
-517 903 0
-517 514 0
518 -18 -6 0
-518 18 0
-518 6 0
519 -518 -50 0
-519 518 0
-519 50 0
520 -904 -517 0
-520 904 0
-520 517 0
521 -21 -740 0
-521 21 0
-521 740 0
522 -521 -42 0
-522 521 0
-522 42 0
523 -905 -520 0
-523 905 0
-523 520 0
524 -46 -32 0
-524 46 0
-524 32 0
525 -524 -3 0
-525 524 0
-525 3 0
526 -906 -523 0
-526 906 0
-526 523 0
527 -751 -27 0
-527 751 0
-527 27 0
528 -527 -48 0
-528 527 0
-528 48 0
529 -907 -526 0
-529 907 0
-529 526 0
530 -43 -23 0
-530 43 0
-530 23 0
531 -530 -838 0
-531 530 0
-531 838 0
532 -908 -529 0
-532 908 0
-532 529 0
533 -43 -731 0
-533 43 0
-533 731 0
534 -533 -42 0
-534 533 0
-534 42 0
535 -909 -532 0
-535 909 0
-535 532 0
536 -26 -6 0
-536 26 0
-536 6 0
537 -536 -20 0
-537 536 0
-537 20 0
538 -910 -535 0
-538 910 0
-538 535 0
539 -7 -6 0
-539 7 0
-539 6 0
540 -539 -17 0
-540 539 0
-540 17 0
541 -911 -538 0
-541 911 0
-541 538 0
542 -47 -734 0
-542 47 0
-542 734 0
543 -542 -31 0
-543 542 0
-543 31 0
544 -912 -541 0
-544 912 0
-544 541 0
545 -727 -705 0
-545 727 0
-545 705 0
546 -545 -838 0
-546 545 0
-546 838 0
547 -913 -544 0
-547 913 0
-547 544 0
548 -767 -32 0
-548 767 0
-548 32 0
549 -548 -48 0
-549 548 0
-549 48 0
550 -914 -547 0
-550 914 0
-550 547 0
551 -740 -4 0
-551 740 0
-551 4 0
552 -551 -16 0
-552 551 0
-552 16 0
553 -915 -550 0
-553 915 0
-553 550 0
554 -838 -699 0
-554 838 0
-554 699 0
555 -554 -18 0
-555 554 0
-555 18 0
556 -916 -553 0
-556 916 0
-556 553 0
557 -44 -43 0
-557 44 0
-557 43 0
558 -557 -18 0
-558 557 0
-558 18 0
559 -917 -556 0
-559 917 0
-559 556 0
560 -47 -23 0
-560 47 0
-560 23 0
561 -560 -36 0
-561 560 0
-561 36 0
562 -918 -559 0
-562 918 0
-562 559 0
563 -47 -46 0
-563 47 0
-563 46 0
564 -563 -782 0
-564 563 0
-564 782 0
565 -919 -562 0
-565 919 0
-565 562 0
566 -37 -731 0
-566 37 0
-566 731 0
567 -566 -12 0
-567 566 0
-567 12 0
568 -920 -565 0
-568 920 0
-568 565 0
569 -730 -10 0
-569 730 0
-569 10 0
570 -569 -844 0
-570 569 0
-570 844 0
571 -921 -568 0
-571 921 0
-571 568 0
572 -722 -703 0
-572 722 0
-572 703 0
573 -572 -808 0
-573 572 0
-573 808 0
574 -922 -571 0
-574 922 0
-574 571 0
575 -755 -2 0
-575 755 0
-575 2 0
576 -575 -716 0
-576 575 0
-576 716 0
577 -923 -574 0
-577 923 0
-577 574 0
578 -727 -719 0
-578 727 0
-578 719 0
579 -578 -722 0
-579 578 0
-579 722 0
580 -924 -577 0
-580 924 0
-580 577 0
581 -494 -17 0
-581 494 0
-581 17 0
582 -925 -580 0
-582 925 0
-582 580 0
583 -49 -801 0
-583 49 0
-583 801 0
584 -583 -12 0
-584 583 0
-584 12 0
585 -926 -582 0
-585 926 0
-585 582 0
586 -38 -699 0
-586 38 0
-586 699 0
587 -586 -41 0
-587 586 0
-587 41 0
588 -927 -585 0
-588 927 0
-588 585 0
589 -456 -719 0
-589 456 0
-589 719 0
590 -928 -588 0
-590 928 0
-590 588 0
591 -41 -728 0
-591 41 0
-591 728 0
592 -591 -760 0
-592 591 0
-592 760 0
593 -929 -590 0
-593 929 0
-593 590 0
594 -930 -3 0
-594 930 0
-594 3 0
595 -594 -5 0
-595 594 0
-595 5 0
596 -931 -593 0
-596 931 0
-596 593 0
597 -838 -705 0
-597 838 0
-597 705 0
598 -597 -50 0
-598 597 0
-598 50 0
599 -932 -596 0
-599 932 0
-599 596 0
600 -34 -5 0
-600 34 0
-600 5 0
601 -600 -41 0
-601 600 0
-601 41 0
602 -933 -599 0
-602 933 0
-602 599 0
603 -46 -737 0
-603 46 0
-603 737 0
604 -603 -40 0
-604 603 0
-604 40 0
605 -934 -602 0
-605 934 0
-605 602 0
606 -755 -24 0
-606 755 0
-606 24 0
607 -606 -760 0
-607 606 0
-607 760 0
608 -935 -605 0
-608 935 0
-608 605 0
609 -46 -703 0
-609 46 0
-609 703 0
610 -609 -8 0
-610 609 0
-610 8 0
611 -936 -608 0
-611 936 0
-611 608 0
612 -770 -808 0
-612 770 0
-612 808 0
613 -612 -17 0
-613 612 0
-613 17 0
614 -937 -611 0
-614 937 0
-614 611 0
615 -45 -41 0
-615 45 0
-615 41 0
616 -615 -13 0
-616 615 0
-616 13 0
617 -938 -614 0
-617 938 0
-617 614 0
618 -27 -722 0
-618 27 0
-618 722 0
619 -618 -25 0
-619 618 0
-619 25 0
620 -939 -617 0
-620 939 0
-620 617 0
621 -11 -7 0
-621 11 0
-621 7 0
622 -621 -14 0
-622 621 0
-622 14 0
623 -940 -620 0
-623 940 0
-623 620 0
624 -764 -725 0
-624 764 0
-624 725 0
625 -624 -840 0
-625 624 0
-625 840 0
626 -941 -623 0
-626 941 0
-626 623 0
627 -757 -2 0
-627 757 0
-627 2 0
628 -627 -840 0
-628 627 0
-628 840 0
629 -942 -626 0
-629 942 0
-629 626 0
630 -727 -10 0
-630 727 0
-630 10 0
631 -630 -725 0
-631 630 0
-631 725 0
632 -943 -629 0
-632 943 0
-632 629 0
633 -383 -728 0
-633 383 0
-633 728 0
634 -944 -632 0
-634 944 0
-634 632 0
635 -32 -826 0
-635 32 0
-635 826 0
636 -635 -5 0
-636 635 0
-636 5 0
637 -945 -634 0
-637 945 0
-637 634 0
638 -813 -730 0
-638 813 0
-638 730 0
639 -638 -844 0
-639 638 0
-639 844 0
640 -946 -637 0
-640 946 0
-640 637 0
641 -37 -15 0
-641 37 0
-641 15 0
642 -641 -716 0
-642 641 0
-642 716 0
643 -947 -640 0
-643 947 0
-643 640 0
644 -44 -836 0
-644 44 0
-644 836 0
645 -644 -40 0
-645 644 0
-645 40 0
646 -948 -643 0
-646 948 0
-646 643 0
647 -770 -734 0
-647 770 0
-647 734 0
648 -647 -9 0
-648 647 0
-648 9 0
649 -949 -646 0
-649 949 0
-649 646 0
650 -33 -32 0
-650 33 0
-650 32 0
651 -650 -44 0
-651 650 0
-651 44 0
652 -950 -649 0
-652 950 0
-652 649 0
653 -742 -706 0
-653 742 0
-653 706 0
654 -653 -801 0
-654 653 0
-654 801 0
655 -951 -652 0
-655 951 0
-655 652 0
656 -773 -719 0
-656 773 0
-656 719 0
657 -656 -737 0
-657 656 0
-657 737 0
658 -952 -655 0
-658 952 0
-658 655 0
659 -46 -15 0
-659 46 0
-659 15 0
660 -659 -826 0
-660 659 0
-660 826 0
661 -953 -658 0
-661 953 0
-661 658 0
662 -34 -719 0
-662 34 0
-662 719 0
663 -662 -844 0
-663 662 0
-663 844 0
664 -954 -661 0
-664 954 0
-664 661 0
665 -33 -790 0
-665 33 0
-665 790 0
666 -665 -705 0
-666 665 0
-666 705 0
667 -955 -664 0
-667 955 0
-667 664 0
668 -15 -705 0
-668 15 0
-668 705 0
669 -668 -707 0
-669 668 0
-669 707 0
670 -956 -667 0
-670 956 0
-670 667 0
671 -49 -699 0
-671 49 0
-671 699 0
672 -671 -744 0
-672 671 0
-672 744 0
673 -957 -670 0
-673 957 0
-673 670 0
674 -764 -721 0
-674 764 0
-674 721 0
675 -674 -844 0
-675 674 0
-675 844 0
676 -958 -673 0
-676 958 0
-676 673 0
677 -25 -698 0
-677 25 0
-677 698 0
678 -677 -801 0
-678 677 0
-678 801 0
679 -959 -676 0
-679 959 0
-679 676 0
680 -14 -790 0
-680 14 0
-680 790 0
681 -680 -15 0
-681 680 0
-681 15 0
682 -960 -679 0
-682 960 0
-682 679 0
683 -34 -26 0
-683 34 0
-683 26 0
684 -683 -39 0
-684 683 0
-684 39 0
685 -961 -682 0
-685 961 0
-685 682 0
686 -764 -26 0
-686 764 0
-686 26 0
687 -686 -27 0
-687 686 0
-687 27 0
688 -962 -685 0
-688 962 0
-688 685 0
689 -799 -730 0
-689 799 0
-689 730 0
690 -689 -728 0
-690 689 0
-690 728 0
691 -963 -688 0
-691 963 0
-691 688 0
692 -28 -3 0
-692 28 0
-692 3 0
693 -692 -826 0
-693 692 0
-693 826 0
694 -964 -691 0
-694 964 0
-694 691 0
695 -34 -728 0
-695 34 0
-695 728 0
696 -695 -744 0
-696 695 0
-696 744 0
697 -965 -694 0
-697 965 0
-697 694 0
-698 -2 0
698 2 0
-699 -1 0
699 1 0
-700 -6 0
700 6 0
-701 -54 0
701 54 0
-702 -52 0
702 52 0
-703 -7 0
703 7 0
-704 -57 0
704 57 0
-705 -11 0
705 11 0
-706 -10 0
706 10 0
-707 -12 0
707 12 0
-708 -60 0
708 60 0
-709 -9 0
709 9 0
-710 -63 0
710 63 0
-711 -14 0
711 14 0
-712 -66 0
712 66 0
-713 -69 0
713 69 0
-714 -18 0
714 18 0
-715 -72 0
715 72 0
-716 -20 0
716 20 0
-717 -75 0
717 75 0
-718 -78 0
718 78 0
-719 -21 0
719 21 0
-720 -81 0
720 81 0
-721 -24 0
721 24 0
-722 -23 0
722 23 0
-723 -25 0
723 25 0
-724 -84 0
724 84 0
-725 -26 0
725 26 0
-726 -87 0
726 87 0
-727 -28 0
727 28 0
-728 -13 0
728 13 0
-729 -90 0
729 90 0
-730 -30 0
730 30 0
-731 -31 0
731 31 0
-732 -93 0
732 93 0
-733 -96 0
733 96 0
-734 -33 0
734 33 0
-735 -99 0
735 99 0
-736 -102 0
736 102 0
-737 -22 0
737 22 0
-738 -105 0
738 105 0
-739 -108 0
739 108 0
-740 -15 0
740 15 0
-741 -111 0
741 111 0
-742 -38 0
742 38 0
-743 -114 0
743 114 0
-744 -16 0
744 16 0
-745 -117 0
745 117 0
-746 -120 0
746 120 0
-747 -123 0
747 123 0
-748 -126 0
748 126 0
-749 -129 0
749 129 0
-750 -132 0
750 132 0
-751 -34 0
751 34 0
-752 -135 0
752 135 0
-753 -138 0
753 138 0
-754 -141 0
754 141 0
-755 -37 0
755 37 0
-756 -144 0
756 144 0
-757 -43 0
757 43 0
-758 -147 0
758 147 0
-759 -35 0
759 35 0
-760 -8 0
760 8 0
-761 -150 0
761 150 0
-762 -45 0
762 45 0
-763 -153 0
763 153 0
-764 -36 0
764 36 0
-765 -5 0
765 5 0
-766 -156 0
766 156 0
-767 -46 0
767 46 0
-768 -159 0
768 159 0
-769 -162 0
769 162 0
-770 -47 0
770 47 0
-771 -165 0
771 165 0
-772 -168 0
772 168 0
-773 -27 0
773 27 0
-774 -171 0
774 171 0
-775 -174 0
775 174 0
-776 -177 0
776 177 0
-777 -41 0
777 41 0
-778 -180 0
778 180 0
-779 -183 0
779 183 0
-780 -186 0
780 186 0
-781 -189 0
781 189 0
-782 -48 0
782 48 0
-783 -192 0
783 192 0
-784 -195 0
784 195 0
-785 -198 0
785 198 0
-786 -201 0
786 201 0
-787 -204 0
787 204 0
-788 -207 0
788 207 0
-789 -210 0
789 210 0
-790 -4 0
790 4 0
-791 -213 0
791 213 0
-792 -216 0
792 216 0
-793 -219 0
793 219 0
-794 -222 0
794 222 0
-795 -225 0
795 225 0
-796 -228 0
796 228 0
-797 -231 0
797 231 0
-798 -234 0
798 234 0
-799 -49 0
799 49 0
-800 -237 0
800 237 0
-801 -40 0
801 40 0
-802 -240 0
802 240 0
-803 -243 0
803 243 0
-804 -246 0
804 246 0
-805 -249 0
805 249 0
-806 -252 0
806 252 0
-807 -255 0
807 255 0
-808 -19 0
808 19 0
-809 -258 0
809 258 0
-810 -261 0
810 261 0
-811 -264 0
811 264 0
-812 -267 0
812 267 0
-813 -50 0
813 50 0
-814 -270 0
814 270 0
-815 -273 0
815 273 0
-816 -276 0
816 276 0
-817 -279 0
817 279 0
-818 -282 0
818 282 0
-819 -285 0
819 285 0
-820 -288 0
820 288 0
-821 -291 0
821 291 0
-822 -294 0
822 294 0
-823 -297 0
823 297 0
-824 -300 0
824 300 0
-825 -303 0
825 303 0
-826 -29 0
826 29 0
-827 -306 0
827 306 0
-828 -309 0
828 309 0
-829 -312 0
829 312 0
-830 -315 0
830 315 0
-831 -318 0
831 318 0
-832 -321 0
832 321 0
-833 -324 0
833 324 0
-834 -327 0
834 327 0
-835 -330 0
835 330 0
-836 -3 0
836 3 0
-837 -333 0
837 333 0
-838 -39 0
838 39 0
-839 -336 0
839 336 0
-840 -42 0
840 42 0
-841 -339 0
841 339 0
-842 -342 0
842 342 0
-843 -345 0
843 345 0
-844 -17 0
844 17 0
-845 -348 0
845 348 0
-846 -351 0
846 351 0
-847 -354 0
847 354 0
-848 -357 0
848 357 0
-849 -360 0
849 360 0
-850 -363 0
850 363 0
-851 -366 0
851 366 0
-852 -369 0
852 369 0
-853 -372 0
853 372 0
-854 -375 0
854 375 0
-855 -378 0
855 378 0
-856 -381 0
856 381 0
-857 -384 0
857 384 0
-858 -387 0
858 387 0
-859 -390 0
859 390 0
-860 -392 0
860 392 0
-861 -395 0
861 395 0
-862 -398 0
862 398 0
-863 -401 0
863 401 0
-864 -403 0
864 403 0
-865 -406 0
865 406 0
-866 -409 0
866 409 0
-867 -412 0
867 412 0
-868 -415 0
868 415 0
-869 -418 0
869 418 0
-870 -421 0
870 421 0
-871 -424 0
871 424 0
-872 -427 0
872 427 0
-873 -430 0
873 430 0
-874 -433 0
874 433 0
-875 -436 0
875 436 0
-876 -439 0
876 439 0
-877 -442 0
877 442 0
-878 -445 0
878 445 0
-879 -448 0
879 448 0
-880 -451 0
880 451 0
-881 -32 0
881 32 0
-882 -454 0
882 454 0
-883 -457 0
883 457 0
-884 -460 0
884 460 0
-885 -463 0
885 463 0
-886 -466 0
886 466 0
-887 -469 0
887 469 0
-888 -471 0
888 471 0
-889 -474 0
889 474 0
-890 -477 0
890 477 0
-891 -480 0
891 480 0
-892 -483 0
892 483 0
-893 -486 0
893 486 0
-894 -489 0
894 489 0
-895 -492 0
895 492 0
-896 -495 0
896 495 0
-897 -498 0
897 498 0
-898 -501 0
898 501 0
-899 -504 0
899 504 0
-900 -507 0
900 507 0
-901 -510 0
901 510 0
-902 -513 0
902 513 0
-903 -516 0
903 516 0
-904 -519 0
904 519 0
-905 -522 0
905 522 0
-906 -525 0
906 525 0
-907 -528 0
907 528 0
-908 -531 0
908 531 0
-909 -534 0
909 534 0
-910 -537 0
910 537 0
-911 -540 0
911 540 0
-912 -543 0
912 543 0
-913 -546 0
913 546 0
-914 -549 0
914 549 0
-915 -552 0
915 552 0
-916 -555 0
916 555 0
-917 -558 0
917 558 0
-918 -561 0
918 561 0
-919 -564 0
919 564 0
-920 -567 0
920 567 0
-921 -570 0
921 570 0
-922 -573 0
922 573 0
-923 -576 0
923 576 0
-924 -579 0
924 579 0
-925 -581 0
925 581 0
-926 -584 0
926 584 0
-927 -587 0
927 587 0
-928 -589 0
928 589 0
-929 -592 0
929 592 0
-930 -44 0
930 44 0
-931 -595 0
931 595 0
-932 -598 0
932 598 0
-933 -601 0
933 601 0
-934 -604 0
934 604 0
-935 -607 0
935 607 0
-936 -610 0
936 610 0
-937 -613 0
937 613 0
-938 -616 0
938 616 0
-939 -619 0
939 619 0
-940 -622 0
940 622 0
-941 -625 0
941 625 0
-942 -628 0
942 628 0
-943 -631 0
943 631 0
-944 -633 0
944 633 0
-945 -636 0
945 636 0
-946 -639 0
946 639 0
-947 -642 0
947 642 0
-948 -645 0
948 645 0
-949 -648 0
949 648 0
-950 -651 0
950 651 0
-951 -654 0
951 654 0
-952 -657 0
952 657 0
-953 -660 0
953 660 0
-954 -663 0
954 663 0
-955 -666 0
955 666 0
-956 -669 0
956 669 0
-957 -672 0
957 672 0
-958 -675 0
958 675 0
-959 -678 0
959 678 0
-960 -681 0
960 681 0
-961 -684 0
961 684 0
-962 -687 0
962 687 0
-963 -690 0
963 690 0
-964 -693 0
964 693 0
-965 -696 0
965 696 0
697 0
